100
128
62
28
18
25
55
23
51
9
5
19
64
57
62
16
12
2
25
48
55
30
1
40
12
45
1
13
40
54
40
16
28
37
23
56
47
25
58
18
29
40
48
39
23
45
64
30
13
15
36
20
40
48
39
1
26
31
1
4
4
13
8
59
42
17
6
45
13
21
37
32
64
21
64
21
17
42
1
43
21
50
27
35
3
36
24
39
57
13
24
27
19
22
44
24
33
14
27
13
51
40